(set-logic QF_S)
(declare-fun var0 () String)
(declare-fun var1 () String)
(declare-fun var2 () String)
(declare-fun var3 () String)
(declare-fun var4 () String)
(declare-fun var5 () String)
(declare-fun var6 () String)
(declare-fun var7 () String)
(declare-fun var8 () String)
(declare-fun var9 () String)
(declare-fun var10 () String)
(declare-fun var11 () String)
(declare-fun var12 () String)
(declare-fun var13 () String)
(declare-fun var14 () String)
(declare-fun var15 () String)
(declare-fun var16 () String)
(declare-fun var17 () String)
(declare-fun var18 () String)
(declare-fun var19 () String)
(declare-fun var20 () String)
(declare-fun var21 () String)
(declare-fun var22 () String)
(declare-fun var23 () String)
(declare-fun var24 () String)
(declare-fun var25 () String)
(declare-fun var26 () String)
(declare-fun var27 () String)
(declare-fun var28 () String)
(declare-fun var29 () String)
(declare-fun var30 () String)
(declare-fun var31 () String)
(declare-fun var32 () String)
(declare-fun var33 () String)
(declare-fun var34 () String)
(declare-fun var35 () String)
(declare-fun var36 () String)
(declare-fun var37 () String)
(declare-fun var38 () String)
(declare-fun var39 () String)
(declare-fun var40 () String)
(declare-fun var41 () String)
(declare-fun var42 () String)
(declare-fun var43 () String)
(declare-fun var44 () String)
(declare-fun var45 () String)
(declare-fun var46 () String)
(declare-fun var47 () String)
(declare-fun var48 () String)
(declare-fun var49 () String)
(declare-fun var50 () String)
(declare-fun var51 () String)
(declare-fun var52 () String)
(declare-fun var53 () String)
(declare-fun var54 () String)
(declare-fun var55 () String)
(declare-fun var56 () String)
(declare-fun var57 () String)
(declare-fun var58 () String)
(declare-fun var59 () String)
(declare-fun var60 () String)
(assert (= var0 (Concat var1 var2)))
(assert (= var2 (Concat var3 var4)))
(assert (= var4 (Concat var5 var6)))
(assert (= var6 (Concat var7 var8)))
(assert (= var8 (Concat var9 var10)))
(assert (= var10 (Concat var11 var12)))
(assert (= var12 (Concat var13 var14)))
(assert (= var14 (Concat var15 var16)))
(assert (= var16 (Concat var17 var18)))
(assert (= var18 (Concat var19 var20)))
(assert (= var20 (Concat var21 var22)))
(assert (= var22 (Concat var23 var24)))
(assert (= var24 (Concat var25 var26)))
(assert (= var26 (Concat var27 var28)))
(assert (= var28 (Concat var29 var30)))
(assert (= var30 (Concat var31 var32)))
(assert (= var32 (Concat var33 var34)))
(assert (= var34 (Concat var35 var36)))
(assert (= var36 (Concat var37 var38)))
(assert (= var38 (Concat var39 var40)))
(assert (= var40 (Concat var41 var42)))
(assert (= var42 (Concat var43 var44)))
(assert (= var44 (Concat var45 var46)))
(assert (= var46 (Concat var47 var48)))
(assert (= var48 (Concat var49 var50)))
(assert (= var50 (Concat var51 var52)))
(assert (= var52 (Concat var53 var54)))
(assert (= var54 (Concat var55 var56)))
(assert (= var56 (Concat var57 var58)))
(assert (= var58 (Concat var59 var60)))
(assert (= var0 "solution"))
(assert (= "J" (CharAt var0 909)))
(assert (= "P" (CharAt var58 28)))
(assert (= "I" (CharAt var37 529)))
(assert (= "2" (CharAt var58 978)))
(assert (= "x" (CharAt var9 45)))
(assert (= "Q" (CharAt var36 841)))
(assert (= "s" (CharAt var57 102)))
(assert (= "G" (CharAt var30 77)))
(assert (= "m" (CharAt var56 68)))
(assert (= "R" (CharAt var12 194)))
(assert (= "K" (CharAt var33 591)))
(assert (= "_" (CharAt var53 531)))
(assert (= "|" (CharAt var28 519)))
(assert (= "(" (CharAt var7 60)))
(assert (= "Q" (CharAt var24 237)))
(assert (= "(" (CharAt var47 602)))
(assert (= "m" (CharAt var26 400)))
(assert (= "M" (CharAt var19 913)))
(assert (= "2" (CharAt var54 593)))
(assert (= "m" (CharAt var24 573)))
(assert (= "$" (CharAt var36 828)))
(assert (= "l" (CharAt var20 670)))
(assert (= "o" (CharAt var37 201)))
(assert (= "F" (CharAt var21 80)))
(assert (= "P" (CharAt var26 928)))
(assert (= "q" (CharAt var46 151)))
(assert (= "(" (CharAt var9 121)))
(assert (= "[" (CharAt var4 361)))
(assert (= "B" (CharAt var21 144)))
(assert (= ">" (CharAt var27 543)))
(assert (= "e" (CharAt var38 926)))
(assert (= "5" (CharAt var11 146)))
(assert (= "7" (CharAt var59 390)))
(assert (= "L" (CharAt var23 954)))
(assert (= "r" (CharAt var49 24)))
(assert (= "s" (CharAt var60 368)))
(assert (= "[" (CharAt var44 893)))
(assert (= "p" (CharAt var36 889)))
(assert (= "9" (CharAt var59 264)))
(assert (= "g" (CharAt var26 831)))
(assert (= "l" (CharAt var46 139)))
(assert (= "w" (CharAt var40 402)))
(assert (= "x" (CharAt var24 293)))
(assert (= "y" (CharAt var20 674)))
(assert (= "W" (CharAt var35 846)))
(assert (= "m" (CharAt var30 349)))
(assert (= "B" (CharAt var39 620)))
(assert (= "^" (CharAt var43 905)))
(assert (= "h" (CharAt var40 620)))
(assert (= "K" (CharAt var10 128)))
(assert (= "F" (CharAt var13 15)))
(assert (= "`" (CharAt var51 784)))
(assert (= ">" (CharAt var11 753)))
(assert (= "=" (CharAt var47 383)))
(assert (= "c" (CharAt var23 619)))
(assert (= "{" (CharAt var16 904)))
(assert (= "F" (CharAt var22 916)))
(assert (= "F" (CharAt var56 431)))
(assert (= ";" (CharAt var13 466)))
(assert (= "O" (CharAt var21 212)))
(assert (= "R" (CharAt var49 696)))
(assert (= "h" (CharAt var59 603)))
(assert (= "@" (CharAt var0 298)))
(assert (= "." (CharAt var55 791)))
(assert (= "A" (CharAt var44 32)))
(assert (= "X" (CharAt var57 785)))
(assert (= "e" (CharAt var49 624)))
(assert (= "," (CharAt var15 879)))
(assert (= "C" (CharAt var19 620)))
(assert (= "5" (CharAt var14 993)))
(assert (= "q" (CharAt var0 78)))
(assert (= "!" (CharAt var53 611)))
(assert (= "w" (CharAt var59 48)))
(assert (= "W" (CharAt var48 200)))
(assert (= "p" (CharAt var0 832)))
(assert (= "M" (CharAt var2 645)))
(assert (= "4" (CharAt var14 76)))
(assert (= "z" (CharAt var53 460)))
(assert (= "m" (CharAt var8 485)))
(assert (= "n" (CharAt var42 250)))
(assert (= "1" (CharAt var30 214)))
(assert (= "/" (CharAt var1 678)))
(assert (= "[" (CharAt var15 552)))
(assert (= "g" (CharAt var55 589)))
(assert (= "h" (CharAt var48 362)))
(assert (= "\"" (CharAt var33 714)))
(assert (= "w" (CharAt var50 509)))
(assert (= "?" (CharAt var23 816)))
(assert (= "w" (CharAt var41 5)))
(assert (= "d" (CharAt var1 646)))
(assert (= "S" (CharAt var10 564)))
(assert (= "A" (CharAt var41 487)))
(assert (= "2" (CharAt var20 724)))
(assert (= "1" (CharAt var16 739)))
(assert (= ">" (CharAt var40 601)))
(assert (= "6" (CharAt var4 18)))
(assert (= "8" (CharAt var51 303)))
(assert (= "z" (CharAt var27 515)))
(assert (= "_" (CharAt var50 524)))
(assert (= "b" (CharAt var37 548)))
(assert (= "?" (CharAt var47 858)))
(assert (= "%" (CharAt var60 120)))
(assert (= "|" (CharAt var9 704)))
(assert (= "z" (CharAt var26 153)))
(assert (= "%" (CharAt var36 862)))
(assert (= "Q" (CharAt var3 568)))
(assert (= "R" (CharAt var3 867)))
(assert (= "`" (CharAt var44 606)))
(assert (= "2" (CharAt var26 424)))
(assert (= "e" (CharAt var13 624)))
(assert (= "L" (CharAt var52 800)))
(assert (= "L" (CharAt var41 309)))
(assert (= "~" (CharAt var48 203)))
(assert (= "|" (CharAt var44 72)))
(assert (= "2" (CharAt var42 391)))
(assert (= "[" (CharAt var29 958)))
(assert (= "J" (CharAt var28 825)))
(assert (= "8" (CharAt var52 119)))
(assert (= "I" (CharAt var20 187)))
(assert (= "$" (CharAt var11 85)))
(assert (= "3" (CharAt var20 551)))
(assert (= "V" (CharAt var54 751)))
(assert (= "E" (CharAt var3 46)))
(assert (= ";" (CharAt var32 573)))
(assert (= "L" (CharAt var15 884)))
(assert (= "." (CharAt var1 453)))
(assert (= "f" (CharAt var42 588)))
(assert (= "S" (CharAt var2 783)))
(assert (= "9" (CharAt var51 165)))
(assert (= "2" (CharAt var58 13)))
(assert (= "T" (CharAt var2 845)))
(assert (= "+" (CharAt var38 319)))
(assert (= "i" (CharAt var44 701)))
(assert (= "j" (CharAt var31 919)))
(assert (= ":" (CharAt var44 479)))
(assert (= ";" (CharAt var36 39)))
(assert (= "+" (CharAt var15 245)))
(assert (= "z" (CharAt var25 983)))
(assert (= "z" (CharAt var44 732)))
(assert (= "c" (CharAt var9 251)))
(assert (= "m" (CharAt var41 537)))
(assert (= "`" (CharAt var22 815)))
(assert (= "'" (CharAt var35 60)))
(assert (= "p" (CharAt var50 127)))
(assert (= "K" (CharAt var56 838)))
(assert (= "x" (CharAt var56 87)))
(assert (= "?" (CharAt var2 955)))
(assert (= "k" (CharAt var39 826)))
(assert (= "+" (CharAt var51 712)))
(assert (= "t" (CharAt var11 369)))
(assert (= "C" (CharAt var16 985)))
(assert (= "4" (CharAt var14 506)))
(assert (= "=" (CharAt var24 779)))
(assert (= "0" (CharAt var20 50)))
(assert (= ">" (CharAt var12 725)))
(assert (= "S" (CharAt var53 810)))
(assert (= ")" (CharAt var17 309)))
(assert (= "{" (CharAt var26 505)))
(assert (= "{" (CharAt var27 49)))
(assert (= "#" (CharAt var32 400)))
(assert (= "K" (CharAt var1 154)))
(assert (= "i" (CharAt var26 85)))
(assert (= "~" (CharAt var48 785)))
(assert (= "{" (CharAt var19 77)))
(assert (= "A" (CharAt var40 19)))
(assert (= "?" (CharAt var29 445)))
(assert (= "9" (CharAt var28 871)))
(assert (= "]" (CharAt var39 834)))
(assert (= "e" (CharAt var29 573)))
(assert (= "b" (CharAt var49 941)))
(assert (= "." (CharAt var51 918)))
(assert (= "Z" (CharAt var43 916)))
(assert (= "%" (CharAt var48 206)))
(assert (= "*" (CharAt var53 615)))
(assert (= "V" (CharAt var4 631)))
(assert (= "S" (CharAt var26 601)))
(assert (= "g" (CharAt var36 911)))
(assert (= "'" (CharAt var12 217)))
(assert (= "r" (CharAt var25 285)))
(assert (= "B" (CharAt var34 903)))
(assert (= "z" (CharAt var11 100)))
(assert (= "," (CharAt var38 943)))
(assert (= "6" (CharAt var45 477)))
(assert (= "q" (CharAt var7 800)))
(assert (= "&" (CharAt var43 798)))
(assert (= "(" (CharAt var41 602)))
(assert (= "9" (CharAt var52 536)))
(assert (= "X" (CharAt var28 556)))
(assert (= ">" (CharAt var58 67)))
(assert (= "Z" (CharAt var59 951)))
(assert (= "d" (CharAt var1 872)))
(assert (= "8" (CharAt var2 936)))
(assert (= "#" (CharAt var31 461)))
(assert (= "W" (CharAt var56 669)))
(assert (= "l" (CharAt var37 62)))
(assert (= "G" (CharAt var19 876)))
(assert (= "m" (CharAt var14 569)))
(assert (= "M" (CharAt var10 998)))
(assert (= "G" (CharAt var47 863)))
(assert (= "O" (CharAt var43 978)))
(assert (= "c" (CharAt var21 729)))
(assert (= "_" (CharAt var8 891)))
(assert (= "I" (CharAt var4 483)))
(assert (= "F" (CharAt var33 419)))
(assert (= "Z" (CharAt var33 908)))
(assert (= "{" (CharAt var25 901)))
(assert (= "," (CharAt var1 411)))
(assert (= "<" (CharAt var6 90)))
(assert (= "_" (CharAt var21 102)))
(assert (= "6" (CharAt var55 351)))
(assert (= "J" (CharAt var46 662)))
(assert (= "G" (CharAt var10 484)))
(assert (= "h" (CharAt var49 704)))
(assert (= "<" (CharAt var41 899)))
(assert (= "^" (CharAt var24 593)))
(assert (= "k" (CharAt var53 747)))
(assert (= "<" (CharAt var55 440)))
(assert (= "5" (CharAt var32 470)))
(assert (= "b" (CharAt var54 951)))
(assert (= "v" (CharAt var12 462)))
(assert (= "s" (CharAt var10 645)))
(assert (= "?" (CharAt var60 343)))
(assert (= "`" (CharAt var33 532)))
(assert (= "I" (CharAt var54 720)))
(assert (= "i" (CharAt var49 429)))
(assert (= "r" (CharAt var34 952)))
(assert (= "8" (CharAt var9 804)))
(assert (= "-" (CharAt var18 60)))
(assert (= "." (CharAt var43 197)))
(assert (= "9" (CharAt var29 938)))
(assert (= "@" (CharAt var20 495)))
(assert (= "9" (CharAt var28 434)))
(assert (= "q" (CharAt var14 463)))
(assert (= "&" (CharAt var33 140)))
(assert (= "y" (CharAt var2 446)))
(assert (= "1" (CharAt var25 549)))
(assert (= "X" (CharAt var58 409)))
(assert (= "\"" (CharAt var7 190)))
(assert (= "w" (CharAt var59 767)))
(assert (= "'" (CharAt var51 533)))
(assert (= "w" (CharAt var60 983)))
(assert (= "X" (CharAt var50 668)))
(assert (= "U" (CharAt var41 933)))
(assert (= "X" (CharAt var39 413)))
(assert (= "7" (CharAt var2 352)))
(assert (= "g" (CharAt var4 947)))
(assert (= "T" (CharAt var43 243)))
(assert (= "p" (CharAt var17 304)))
(assert (= "j" (CharAt var20 192)))
(assert (= "8" (CharAt var26 179)))
(assert (= "%" (CharAt var49 91)))
(assert (= "s" (CharAt var52 609)))
(assert (= "#" (CharAt var27 427)))
(assert (= "+" (CharAt var46 995)))
(assert (= "k" (CharAt var35 840)))
(assert (= "a" (CharAt var8 381)))
(assert (= "O" (CharAt var26 238)))
(assert (= "m" (CharAt var52 606)))
(assert (= "$" (CharAt var7 667)))
(assert (= "u" (CharAt var22 553)))
(assert (= "D" (CharAt var55 672)))
(assert (= "C" (CharAt var42 642)))
(assert (= "8" (CharAt var34 302)))
(assert (= "`" (CharAt var16 75)))
(assert (= "H" (CharAt var0 860)))
(assert (= "V" (CharAt var34 475)))
(assert (= "s" (CharAt var22 859)))
(assert (= "w" (CharAt var17 691)))
(assert (= "q" (CharAt var22 120)))
(assert (= "q" (CharAt var5 573)))
(assert (= "~" (CharAt var37 774)))
(assert (= "*" (CharAt var58 827)))
(assert (= "{" (CharAt var43 562)))
(assert (= "v" (CharAt var16 435)))
(assert (= "1" (CharAt var15 823)))
(assert (= "}" (CharAt var19 796)))
(assert (= "m" (CharAt var3 198)))
(assert (= "(" (CharAt var36 308)))
(assert (= "R" (CharAt var13 288)))
(assert (= "{" (CharAt var3 718)))
(assert (= "6" (CharAt var27 661)))
(assert (= "]" (CharAt var57 59)))
(assert (= "N" (CharAt var55 325)))
(assert (= "1" (CharAt var3 800)))
(assert (= "E" (CharAt var39 629)))
(assert (= "R" (CharAt var50 952)))
(assert (= "b" (CharAt var29 218)))
(assert (= "*" (CharAt var4 918)))
(assert (= "C" (CharAt var23 287)))
(assert (= "4" (CharAt var48 359)))
(assert (= "P" (CharAt var36 324)))
(assert (= "." (CharAt var13 39)))
(assert (= "M" (CharAt var53 683)))
(assert (= "H" (CharAt var51 660)))
(assert (= "^" (CharAt var9 338)))
(assert (= "j" (CharAt var29 953)))
(assert (= "X" (CharAt var4 187)))
(assert (= "7" (CharAt var57 981)))
(assert (= "." (CharAt var17 761)))
(assert (= "s" (CharAt var29 253)))
(assert (= "0" (CharAt var11 48)))
(assert (= "X" (CharAt var29 860)))
(assert (= "0" (CharAt var49 221)))
(assert (= "e" (CharAt var15 123)))
(assert (= "q" (CharAt var12 894)))
(assert (= ")" (CharAt var0 749)))
(assert (= "$" (CharAt var46 310)))
(assert (= "%" (CharAt var55 58)))
(assert (= "'" (CharAt var25 231)))
(assert (= "z" (CharAt var9 897)))
(assert (= "G" (CharAt var15 972)))
(assert (= "5" (CharAt var60 671)))
(assert (= "e" (CharAt var9 947)))
(assert (= "m" (CharAt var12 348)))
(assert (= "Q" (CharAt var58 843)))
(assert (= "i" (CharAt var15 206)))
(assert (= "\"" (CharAt var40 663)))
(assert (= "A" (CharAt var52 654)))
(assert (= "$" (CharAt var43 293)))
(assert (= "k" (CharAt var33 269)))
(assert (= "A" (CharAt var17 563)))
(assert (= "=" (CharAt var26 777)))
(assert (= "y" (CharAt var55 797)))
(assert (= "Q" (CharAt var7 331)))
(assert (= "/" (CharAt var47 792)))
(assert (= "." (CharAt var48 334)))
(assert (= "!" (CharAt var25 87)))
(assert (= "s" (CharAt var59 297)))
(assert (= "z" (CharAt var36 930)))
(assert (= "#" (CharAt var19 182)))
(assert (= "d" (CharAt var6 379)))
(assert (= "c" (CharAt var0 941)))
(assert (= "f" (CharAt var43 605)))
(assert (= "i" (CharAt var16 643)))
(assert (= ")" (CharAt var13 727)))
(assert (= "G" (CharAt var54 639)))
(assert (= ">" (CharAt var34 811)))
(assert (= "c" (CharAt var52 741)))
(assert (= "E" (CharAt var56 986)))
(assert (= "1" (CharAt var38 633)))
(assert (= "X" (CharAt var3 984)))
(assert (= "A" (CharAt var22 274)))
(assert (= "c" (CharAt var19 69)))
(assert (= "#" (CharAt var46 490)))
(assert (= "|" (CharAt var33 168)))
(assert (= "y" (CharAt var2 794)))
(assert (= "2" (CharAt var52 713)))
(assert (= "t" (CharAt var28 68)))
(assert (= "T" (CharAt var8 441)))
(assert (= "_" (CharAt var57 26)))
(assert (= "$" (CharAt var22 487)))
(assert (= "h" (CharAt var56 998)))
(assert (= "m" (CharAt var8 675)))
(assert (= "\\" (CharAt var52 417)))
(assert (= "Y" (CharAt var28 926)))
(assert (= "p" (CharAt var16 254)))
(assert (= "P" (CharAt var16 701)))
(assert (= "J" (CharAt var2 726)))
(assert (= "v" (CharAt var10 887)))
(assert (= "G" (CharAt var30 369)))
(assert (= "Q" (CharAt var5 337)))
(assert (= "n" (CharAt var14 414)))
(assert (= "|" (CharAt var46 114)))
(assert (= "F" (CharAt var44 317)))
(assert (= "1" (CharAt var18 306)))
(assert (= ")" (CharAt var14 267)))
(assert (= "l" (CharAt var26 123)))
(assert (= "." (CharAt var4 300)))
(assert (= "k" (CharAt var48 223)))
(assert (= "y" (CharAt var10 330)))
(assert (= "r" (CharAt var21 345)))
(assert (= "y" (CharAt var7 34)))
(assert (= "T" (CharAt var27 840)))
(assert (= "J" (CharAt var1 918)))
(assert (= "t" (CharAt var56 542)))
(assert (= "N" (CharAt var47 748)))
(assert (= "u" (CharAt var50 531)))
(assert (= "$" (CharAt var57 514)))
(assert (= "6" (CharAt var3 488)))
(assert (= "T" (CharAt var39 148)))
(assert (= "[" (CharAt var46 479)))
(assert (= "8" (CharAt var32 696)))
(assert (= "O" (CharAt var31 807)))
(assert (= ";" (CharAt var59 2)))
(assert (= "6" (CharAt var38 579)))
(assert (= "-" (CharAt var27 28)))
(assert (= "l" (CharAt var4 507)))
(assert (= "M" (CharAt var8 333)))
(assert (= "M" (CharAt var53 232)))
(assert (= "A" (CharAt var26 176)))
(assert (= "\"" (CharAt var38 191)))
(assert (= "5" (CharAt var35 182)))
(assert (= "+" (CharAt var27 251)))
(assert (= "}" (CharAt var8 528)))
(assert (= "K" (CharAt var44 621)))
(assert (= "R" (CharAt var31 231)))
(assert (= "{" (CharAt var56 751)))
(assert (= "B" (CharAt var1 204)))
(assert (= "l" (CharAt var47 526)))
(assert (= "$" (CharAt var53 157)))
(assert (= "y" (CharAt var55 490)))
(assert (= "R" (CharAt var49 443)))
(assert (= "," (CharAt var24 911)))
(assert (= "1" (CharAt var33 522)))
(assert (= "*" (CharAt var60 367)))
(assert (= "@" (CharAt var46 156)))
(assert (= "<" (CharAt var58 516)))
(assert (= "%" (CharAt var16 564)))
(assert (= "B" (CharAt var20 184)))
(assert (= "~" (CharAt var34 824)))
(assert (= "N" (CharAt var24 686)))
(assert (= "." (CharAt var52 135)))
(assert (= "I" (CharAt var57 983)))
(assert (= "M" (CharAt var6 634)))
(assert (= "|" (CharAt var5 160)))
(assert (= "," (CharAt var29 827)))
(assert (= "q" (CharAt var9 929)))
(assert (= "u" (CharAt var54 900)))
(assert (= "F" (CharAt var39 909)))
(assert (= "*" (CharAt var29 893)))
(assert (= "i" (CharAt var20 468)))
(assert (= "@" (CharAt var57 935)))
(assert (= "j" (CharAt var42 46)))
(assert (= "*" (CharAt var34 483)))
(assert (= "_" (CharAt var15 865)))
(assert (= "." (CharAt var29 304)))
(assert (= "_" (CharAt var44 731)))
(assert (= "9" (CharAt var22 457)))
(assert (= "-" (CharAt var23 751)))
(assert (= "#" (CharAt var49 150)))
(assert (= "t" (CharAt var40 816)))
(assert (= "P" (CharAt var39 715)))
(assert (= "B" (CharAt var16 550)))
(assert (= "!" (CharAt var12 143)))
(assert (= "<" (CharAt var17 251)))
(assert (= "p" (CharAt var49 800)))
(assert (= "." (CharAt var19 411)))
(assert (= "B" (CharAt var50 302)))
(assert (= "/" (CharAt var19 933)))
(assert (= "e" (CharAt var35 945)))
(assert (= "X" (CharAt var39 335)))
(assert (= "i" (CharAt var55 967)))
(assert (= "y" (CharAt var16 902)))
(assert (= "1" (CharAt var5 535)))
(assert (= "'" (CharAt var50 887)))
(assert (= "y" (CharAt var59 171)))
(assert (= "4" (CharAt var55 640)))
(assert (= "W" (CharAt var5 968)))
(assert (= "M" (CharAt var11 144)))
(assert (= "y" (CharAt var37 801)))
(assert (= "s" (CharAt var57 134)))
(assert (= "a" (CharAt var19 273)))
(assert (= "I" (CharAt var46 774)))
(assert (= "'" (CharAt var4 558)))
(assert (= "K" (CharAt var32 973)))
(assert (= "e" (CharAt var0 650)))
(assert (= "x" (CharAt var59 679)))
(assert (= "!" (CharAt var8 983)))
(assert (= "1" (CharAt var44 507)))
(assert (= "6" (CharAt var38 230)))
(assert (= "l" (CharAt var30 770)))
(assert (= "I" (CharAt var54 364)))
(assert (= "m" (CharAt var52 815)))
(assert (= "$" (CharAt var49 915)))
(assert (= "," (CharAt var44 308)))
(assert (= "7" (CharAt var40 947)))
(assert (= "G" (CharAt var14 41)))
(assert (= "N" (CharAt var43 263)))
(assert (= "[" (CharAt var22 61)))
(assert (= ">" (CharAt var5 425)))
(assert (= "O" (CharAt var60 842)))
(assert (= ")" (CharAt var49 233)))
(assert (= "1" (CharAt var14 806)))
(assert (= "D" (CharAt var53 347)))
(assert (= "K" (CharAt var56 468)))
(assert (= "/" (CharAt var27 253)))
(assert (= "~" (CharAt var15 913)))
(assert (= "g" (CharAt var3 498)))
(assert (= "X" (CharAt var1 903)))
(assert (= ">" (CharAt var46 84)))
(assert (= "H" (CharAt var36 645)))
(assert (= "}" (CharAt var58 290)))
(assert (= "K" (CharAt var8 576)))
(assert (= "f" (CharAt var44 960)))
(assert (= "d" (CharAt var54 167)))
(assert (= "x" (CharAt var48 265)))
(assert (= "o" (CharAt var18 495)))
(assert (= "9" (CharAt var36 237)))
(assert (= "9" (CharAt var49 753)))
(assert (= "c" (CharAt var21 439)))
(assert (= "<" (CharAt var22 752)))
(assert (= "c" (CharAt var36 422)))
(assert (= "0" (CharAt var55 661)))
(assert (= "f" (CharAt var55 304)))
(assert (= "k" (CharAt var25 204)))
(assert (= "S" (CharAt var23 137)))
(assert (= ":" (CharAt var53 782)))
(assert (= "Z" (CharAt var3 469)))
(assert (= "W" (CharAt var22 855)))
(assert (= ")" (CharAt var28 123)))
(assert (= "8" (CharAt var49 949)))
(assert (= "^" (CharAt var36 702)))
(assert (= "s" (CharAt var29 685)))
(assert (= "<" (CharAt var29 563)))
(assert (= "/" (CharAt var36 258)))
(assert (= "d" (CharAt var20 932)))
(assert (= "(" (CharAt var8 599)))
(assert (= "Q" (CharAt var24 927)))
(assert (= "7" (CharAt var19 906)))
(assert (= "9" (CharAt var55 804)))
(assert (= "o" (CharAt var60 286)))
(assert (= "<" (CharAt var58 921)))
(assert (= ":" (CharAt var42 215)))
(assert (= "I" (CharAt var15 573)))
(assert (= "p" (CharAt var24 455)))
(assert (= "o" (CharAt var3 523)))
(assert (= "h" (CharAt var30 329)))
(assert (= "=" (CharAt var37 321)))
(assert (= "F" (CharAt var58 870)))
(assert (= "+" (CharAt var6 132)))
(assert (= "l" (CharAt var34 3)))
(assert (= "`" (CharAt var30 331)))
(assert (= "]" (CharAt var19 635)))
(assert (= "g" (CharAt var45 800)))
(assert (= "d" (CharAt var11 321)))
(assert (= "L" (CharAt var29 630)))
(assert (= "Q" (CharAt var7 538)))
(assert (= "*" (CharAt var0 660)))
(assert (= "|" (CharAt var42 515)))
(assert (= "v" (CharAt var15 113)))
(assert (= "D" (CharAt var40 159)))
(assert (= "q" (CharAt var43 712)))
(assert (= "z" (CharAt var23 778)))
(assert (= "U" (CharAt var25 859)))
(assert (= "V" (CharAt var53 135)))
(assert (= "p" (CharAt var40 449)))
(assert (= "K" (CharAt var8 385)))
(assert (= "1" (CharAt var26 837)))
(assert (= ";" (CharAt var34 736)))
(assert (= "W" (CharAt var21 715)))
(assert (= "E" (CharAt var45 462)))
(assert (= "e" (CharAt var51 208)))
(assert (= "$" (CharAt var43 682)))
(assert (= "\"" (CharAt var1 605)))
(assert (= "f" (CharAt var49 737)))
(assert (= "i" (CharAt var56 32)))
(assert (= "1" (CharAt var51 914)))
(assert (= "I" (CharAt var54 117)))
(assert (= "w" (CharAt var16 469)))
(assert (= "M" (CharAt var30 856)))
(assert (= "x" (CharAt var10 551)))
(assert (= "o" (CharAt var8 553)))
(assert (= "r" (CharAt var53 680)))
(assert (= "g" (CharAt var25 721)))
(assert (= "*" (CharAt var36 212)))
(assert (= "z" (CharAt var13 145)))
(assert (= "%" (CharAt var14 937)))
(assert (= "p" (CharAt var38 732)))
(assert (= "t" (CharAt var0 459)))
(assert (= "j" (CharAt var32 142)))
(assert (= "K" (CharAt var49 714)))
(assert (= "T" (CharAt var45 804)))
(assert (= "G" (CharAt var22 237)))
(assert (= ":" (CharAt var22 355)))
(assert (= "~" (CharAt var42 151)))
(assert (= ")" (CharAt var57 524)))
(assert (= ")" (CharAt var19 300)))
(assert (= "p" (CharAt var32 295)))
(assert (= "P" (CharAt var46 242)))
(assert (= "S" (CharAt var53 794)))
(assert (= ">" (CharAt var33 277)))
(assert (= "|" (CharAt var8 392)))
(assert (= "b" (CharAt var35 289)))
(assert (= "N" (CharAt var17 639)))
(assert (= "?" (CharAt var43 393)))
(assert (= "y" (CharAt var13 275)))
(assert (= "#" (CharAt var33 354)))
(assert (= "d" (CharAt var27 815)))
(assert (= "_" (CharAt var12 712)))
(assert (= "C" (CharAt var42 182)))
(assert (= "{" (CharAt var31 143)))
(assert (= "_" (CharAt var32 182)))
(assert (= "_" (CharAt var57 965)))
(assert (= "@" (CharAt var36 274)))
(assert (= "-" (CharAt var46 215)))
(assert (= "v" (CharAt var43 201)))
(assert (= "+" (CharAt var56 294)))
(assert (= "~" (CharAt var28 765)))
(assert (= "q" (CharAt var10 432)))
(assert (= "a" (CharAt var60 64)))
(assert (= "\\" (CharAt var3 593)))
(assert (= "c" (CharAt var29 317)))
(assert (= "0" (CharAt var60 81)))
(assert (= "z" (CharAt var52 121)))
(assert (= "%" (CharAt var47 42)))
(assert (= "m" (CharAt var24 903)))
(assert (= "!" (CharAt var32 888)))
(assert (= "+" (CharAt var14 299)))
(assert (= "V" (CharAt var5 71)))
(assert (= "K" (CharAt var46 677)))
(assert (= "K" (CharAt var10 343)))
(assert (= "b" (CharAt var46 730)))
(assert (= "M" (CharAt var29 291)))
(assert (= "w" (CharAt var41 490)))
(assert (= "W" (CharAt var44 1)))
(assert (= "C" (CharAt var8 750)))
(assert (= "7" (CharAt var6 630)))
(assert (= "&" (CharAt var1 762)))
(assert (= "[" (CharAt var49 148)))
(assert (= "(" (CharAt var2 650)))
(assert (= "7" (CharAt var35 178)))
(assert (= "g" (CharAt var45 824)))
(assert (= "C" (CharAt var50 690)))
(assert (= "(" (CharAt var28 114)))
(assert (= "2" (CharAt var30 440)))
(assert (= "K" (CharAt var43 964)))
(assert (= "!" (CharAt var47 943)))
(assert (= "V" (CharAt var4 277)))
(assert (= "7" (CharAt var27 977)))
(assert (= "f" (CharAt var10 0)))
(assert (= "J" (CharAt var19 341)))
(assert (= "e" (CharAt var0 355)))
(assert (= "u" (CharAt var15 655)))
(assert (= "3" (CharAt var25 227)))
(assert (= "u" (CharAt var41 974)))
(assert (= "E" (CharAt var53 839)))
(assert (= "q" (CharAt var37 757)))
(assert (= "q" (CharAt var39 873)))
(assert (= "Y" (CharAt var29 885)))
(assert (= "!" (CharAt var27 228)))
(assert (= ")" (CharAt var11 431)))
(assert (= "m" (CharAt var33 416)))
(assert (= "T" (CharAt var20 552)))
(assert (= "M" (CharAt var7 886)))
(assert (= "h" (CharAt var50 163)))
(assert (= "Z" (CharAt var18 802)))
(assert (= "l" (CharAt var29 946)))
(assert (= "+" (CharAt var24 378)))
(assert (= "+" (CharAt var6 533)))
(assert (= "/" (CharAt var35 332)))
(assert (= "v" (CharAt var24 702)))
(assert (= "\"" (CharAt var41 194)))
(assert (= "O" (CharAt var28 26)))
(assert (= "6" (CharAt var50 291)))
(assert (= "f" (CharAt var26 97)))
(assert (= "<" (CharAt var21 53)))
(assert (= "$" (CharAt var38 474)))
(assert (= ";" (CharAt var2 583)))
(assert (= "[" (CharAt var1 227)))
(assert (= "." (CharAt var19 141)))
(assert (= "[" (CharAt var42 525)))
(assert (= "O" (CharAt var58 509)))
(assert (= "<" (CharAt var32 458)))
(assert (= "N" (CharAt var0 234)))
(assert (= "s" (CharAt var34 615)))
(assert (= "@" (CharAt var4 901)))
(assert (= "Z" (CharAt var3 544)))
(assert (= "-" (CharAt var33 19)))
(assert (= "y" (CharAt var60 264)))
(assert (= "U" (CharAt var18 708)))
(assert (= "Z" (CharAt var39 878)))
(assert (= "6" (CharAt var48 326)))
(assert (= "Y" (CharAt var13 412)))
(assert (= "J" (CharAt var11 591)))
(assert (= "o" (CharAt var29 799)))
(assert (= "I" (CharAt var37 851)))
(assert (= "%" (CharAt var51 553)))
(assert (= "Z" (CharAt var33 431)))
(assert (= "y" (CharAt var34 172)))
(assert (= "U" (CharAt var54 26)))
(assert (= "e" (CharAt var45 631)))
(assert (= ";" (CharAt var30 645)))
(assert (= "s" (CharAt var57 201)))
(assert (= "C" (CharAt var3 524)))
(assert (= "s" (CharAt var8 960)))
(assert (= "B" (CharAt var7 660)))
(assert (= "%" (CharAt var23 557)))
(assert (= "L" (CharAt var50 164)))
(assert (= "%" (CharAt var59 280)))
(assert (= ">" (CharAt var51 491)))
(assert (= "J" (CharAt var33 155)))
(assert (= "[" (CharAt var56 627)))
(assert (= "d" (CharAt var31 157)))
(assert (= "!" (CharAt var42 382)))
(assert (= "h" (CharAt var60 530)))
(assert (= "8" (CharAt var28 842)))
(assert (= "G" (CharAt var7 44)))
(assert (= "3" (CharAt var58 88)))
(assert (= "s" (CharAt var1 234)))
(assert (= "X" (CharAt var14 768)))
(assert (= "y" (CharAt var45 817)))
(assert (= "a" (CharAt var57 885)))
(assert (= "6" (CharAt var2 88)))
(assert (= "k" (CharAt var2 670)))
(assert (= "%" (CharAt var31 731)))
(assert (= ">" (CharAt var14 431)))
(assert (= "V" (CharAt var34 469)))
(assert (= "6" (CharAt var52 2)))
(assert (= "!" (CharAt var28 622)))
(assert (= "F" (CharAt var42 460)))
(assert (= "c" (CharAt var11 992)))
(assert (= "f" (CharAt var24 429)))
(assert (= "(" (CharAt var46 550)))
(assert (= "Q" (CharAt var34 667)))
(assert (= "B" (CharAt var24 698)))
(assert (= "+" (CharAt var11 947)))
(assert (= "@" (CharAt var14 914)))
(assert (= "?" (CharAt var23 475)))
(assert (= "{" (CharAt var19 467)))
(assert (= "8" (CharAt var4 618)))
(assert (= "6" (CharAt var52 185)))
(assert (= "Y" (CharAt var12 893)))
(assert (= "e" (CharAt var12 517)))
(assert (= "3" (CharAt var0 34)))
(assert (= "p" (CharAt var28 628)))
(assert (= "O" (CharAt var9 103)))
(assert (= "#" (CharAt var16 859)))
(assert (= "T" (CharAt var8 760)))
(assert (= "o" (CharAt var43 140)))
(assert (= "C" (CharAt var23 293)))
(assert (= "*" (CharAt var44 84)))
(assert (= "e" (CharAt var29 626)))
(assert (= "Z" (CharAt var33 321)))
(assert (= "D" (CharAt var54 887)))
(assert (= "]" (CharAt var10 713)))
(assert (= "g" (CharAt var7 74)))
(assert (= "f" (CharAt var40 857)))
(assert (= "y" (CharAt var20 443)))
(assert (= "h" (CharAt var60 410)))
(assert (= "p" (CharAt var31 985)))
(assert (= "v" (CharAt var32 795)))
(assert (= "B" (CharAt var41 201)))
(assert (= "3" (CharAt var12 97)))
(assert (= "D" (CharAt var31 533)))
(assert (= "j" (CharAt var0 755)))
(assert (= "T" (CharAt var27 996)))
(assert (= "'" (CharAt var48 313)))
(assert (= "\\" (CharAt var26 126)))
(assert (= "'" (CharAt var9 258)))
(assert (= "." (CharAt var35 518)))
(assert (= "Y" (CharAt var43 489)))
(assert (= "E" (CharAt var25 105)))
(assert (= "J" (CharAt var2 116)))
(assert (= "$" (CharAt var56 471)))
(assert (= "I" (CharAt var28 583)))
(assert (= "t" (CharAt var23 623)))
(assert (= "K" (CharAt var60 382)))
(assert (= "E" (CharAt var45 121)))
(assert (= "5" (CharAt var9 663)))
(assert (= "e" (CharAt var36 764)))
(assert (= "&" (CharAt var47 734)))
(assert (= "l" (CharAt var38 296)))
(assert (= "j" (CharAt var8 728)))
(assert (= ">" (CharAt var9 859)))
(assert (= "Y" (CharAt var13 362)))
(assert (= "X" (CharAt var48 957)))
(assert (= "m" (CharAt var55 608)))
(assert (= "m" (CharAt var6 742)))
(assert (= "y" (CharAt var24 937)))
(assert (= "k" (CharAt var60 781)))
(assert (= "/" (CharAt var52 315)))
(check-sat)